\ENCODING=ISO-8859-1
\Problem name: ilog.cplex

Minimize
 obj:
Subject To
 c1:  x(0,1,0,2,5,2)(0) + x(0,1,0,2,5,2)(1) + x(0,1,0,2,5,2)(2)
      + x(0,1,0,2,5,2)(3)  = 63
 c2:  x(0,1,0,2,5,3)(0) + x(0,1,0,2,5,3)(1) + x(0,1,0,2,5,3)(2)
      + x(0,1,0,2,5,3)(3)  = 335
 c3:  x(0,1,0,2,5,2)(0) - xNG(0,1,0,2,5,2)  = 0
 c4:  x(0,1,0,2,5,3)(0) - xNG(0,1,0,2,5,3)  = 0
 c5:  x(0,1,0,2,5,2)(1) - xPB(0,1,0,2,5,2)(0) - xPB(0,1,0,2,5,2)(1)
      - xPB(0,1,0,2,5,2)(2) - xPB(0,1,0,2,5,2)(3) - xPB(0,1,0,2,5,2)(4)  = 0
 c6:  x(0,1,0,2,5,3)(1) - xPB(0,1,0,2,5,3)(0) - xPB(0,1,0,2,5,3)(1)
      - xPB(0,1,0,2,5,3)(2) - xPB(0,1,0,2,5,3)(3) - xPB(0,1,0,2,5,3)(4)  = 0
 c7:  x(0,1,0,2,5,2)(2) - xGS(0,1,0,2,5,2)(0) - xGS(0,1,0,2,5,2)(1)
      - xGS(0,1,0,2,5,2)(2) - xGS(0,1,0,2,5,2)(3) - xGS(0,1,0,2,5,2)(4)  = 0
 c8:  x(0,1,0,2,5,3)(2) - xGS(0,1,0,2,5,3)(0) - xGS(0,1,0,2,5,3)(1)
      - xGS(0,1,0,2,5,3)(2) - xGS(0,1,0,2,5,3)(3) - xGS(0,1,0,2,5,3)(4)  = 0
 c9:  x(0,1,0,2,5,2)(3) - xEAe(0,1,0,2,5,2)(1) - xEAe'(0,1,0,2,5,2)(1)(5)  = 0
 c10: x(0,1,0,2,5,3)(3) - xEAe(0,1,0,2,5,3)(1) - xEAe'(0,1,0,2,5,3)(1)(5)  = 0
 c11: xEAe(0,1,0,2,5,2)(3)  = 0
 c12: xEAe(0,1,0,2,5,3)(3)  = 0
 c13: xEAe(0,1,0,2,5,2)(1) - xEAe(0,1,0,2,5,2)(2) - xEAe'(0,1,0,2,5,2)(2)(5)
       = 0
 c14: xEAe(0,1,0,2,5,2)(2) - xEAe(0,1,0,2,5,2)(3) - xEAe'(0,1,0,2,5,2)(3)(5)
       = 0
 c15: xEAe(0,1,0,2,5,3)(1) - xEAe(0,1,0,2,5,3)(2) - xEAe'(0,1,0,2,5,3)(2)(5)
       = 0
 c16: xEAe(0,1,0,2,5,3)(2) - xEAe(0,1,0,2,5,3)(3) - xEAe'(0,1,0,2,5,3)(3)(5)
       = 0
 c17: xEAr(0,1,0,2,0)(2)(1) - xEAr(0,1,0,2,0)(3)(2) - xEAr'(0,1,0,2,0)(3)(2)(0)
       = 0
 c18: xEAr(0,1,0,2,1)(2)(1) - xEAr(0,1,0,2,1)(3)(2) - xEAr'(0,1,0,2,1)(3)(2)(1)
       = 0
 c19: xEAr(0,1,0,2,2)(2)(1) - xEAr(0,1,0,2,2)(3)(2) - xEAr'(0,1,0,2,2)(3)(2)(2)
       = 0
 c20: xEAr(0,1,0,2,3)(2)(1) - xEAr(0,1,0,2,3)(3)(2) - xEAr'(0,1,0,2,3)(3)(2)(3)
       = 0
 c21: xEAr(0,1,0,2,4)(2)(1) - xEAr(0,1,0,2,4)(3)(2) - xEAr'(0,1,0,2,4)(3)(2)(4)
       = 0
 c22: xEAr(0,1,0,2,5)(2)(1) - xEAr(0,1,0,2,5)(3)(2) - xEAr'(0,1,0,2,5)(3)(2)(5)
       = 0
 c23: xEAr(0,1,0,2,6)(2)(1) - xEAr(0,1,0,2,6)(3)(2) - xEAr'(0,1,0,2,6)(3)(2)(6)
       = 0
 c24: xEAr(0,1,0,2,7)(2)(1) - xEAr(0,1,0,2,7)(3)(2) - xEAr'(0,1,0,2,7)(3)(2)(7)
       = 0
 c25: - xEAr(0,1,0,2,0)(2)(1) - xEAr'(0,1,0,2,0)(2)(1)(0)  = 0
 c26: - xEAr(0,1,0,2,1)(2)(1) - xEAr'(0,1,0,2,1)(2)(1)(1)  = 0
 c27: - xEAr(0,1,0,2,2)(2)(1) - xEAr'(0,1,0,2,2)(2)(1)(2)  = 0
 c28: - xEAr(0,1,0,2,3)(2)(1) - xEAr'(0,1,0,2,3)(2)(1)(3)  = 0
 c29: - xEAr(0,1,0,2,4)(2)(1) - xEAr'(0,1,0,2,4)(2)(1)(4)  = 0
 c30: xEAe'(0,1,0,2,5,2)(1)(5) + xEAe'(0,1,0,2,5,3)(1)(5)
      - xEAr(0,1,0,2,5)(2)(1) - xEAr'(0,1,0,2,5)(2)(1)(5)  = 0
 c31: - xEAr(0,1,0,2,6)(2)(1) - xEAr'(0,1,0,2,6)(2)(1)(6)  = 0
 c32: - xEAr(0,1,0,2,7)(2)(1) - xEAr'(0,1,0,2,7)(2)(1)(7)  = 0
 c33: - xEAr(0,1,0,2,0)(3)(1) + xEAr'(0,1,0,2,0)(2)(1)(0)
      - xEAr'(0,1,0,2,0)(3)(1)(0)  = 0
 c34: - xEAr(0,1,0,2,1)(3)(1) + xEAr'(0,1,0,2,1)(2)(1)(1)
      - xEAr'(0,1,0,2,1)(3)(1)(1)  = 0
 c35: - xEAr(0,1,0,2,2)(3)(1) + xEAr'(0,1,0,2,2)(2)(1)(2)
      - xEAr'(0,1,0,2,2)(3)(1)(2)  = 0
 c36: - xEAr(0,1,0,2,3)(3)(1) + xEAr'(0,1,0,2,3)(2)(1)(3)
      - xEAr'(0,1,0,2,3)(3)(1)(3)  = 0
 c37: - xEAr(0,1,0,2,4)(3)(1) + xEAr'(0,1,0,2,4)(2)(1)(4)
      - xEAr'(0,1,0,2,4)(3)(1)(4)  = 0
 c38: xEAe'(0,1,0,2,5,2)(2)(5) + xEAe'(0,1,0,2,5,3)(2)(5)
      - xEAr(0,1,0,2,5)(3)(1) + xEAr'(0,1,0,2,5)(2)(1)(5)
      - xEAr'(0,1,0,2,5)(3)(1)(5)  = 0
 c39: - xEAr(0,1,0,2,6)(3)(1) + xEAr'(0,1,0,2,6)(2)(1)(6)
      - xEAr'(0,1,0,2,6)(3)(1)(6)  = 0
 c40: - xEAr(0,1,0,2,7)(3)(1) + xEAr'(0,1,0,2,7)(2)(1)(7)
      - xEAr'(0,1,0,2,7)(3)(1)(7)  = 0
 c41: - xEAe(0,1,0,2,5,2)(1) + xEAe'(0,1,0,2,5,2)(1)(5)
      + xEAe'(0,1,0,2,5,2)(2)(5) + xEAe'(0,1,0,2,5,2)(3)(5)
      + xEAeR(0,1,0,2,5,2)(1)  = 0
 c42: - xEAe(0,1,0,2,5,2)(2) + xEAe'(0,1,0,2,5,2)(2)(5)
      + xEAe'(0,1,0,2,5,2)(3)(5) + xEAeR(0,1,0,2,5,2)(2)  = 0
 c43: - xEAe(0,1,0,2,5,2)(3) + xEAe'(0,1,0,2,5,2)(3)(5) + xEAeR(0,1,0,2,5,2)(3)
       = 0
 c44: - xEAe(0,1,0,2,5,3)(1) + xEAe'(0,1,0,2,5,3)(1)(5)
      + xEAe'(0,1,0,2,5,3)(2)(5) + xEAe'(0,1,0,2,5,3)(3)(5)
      + xEAeR(0,1,0,2,5,3)(1)  = 0
 c45: - xEAe(0,1,0,2,5,3)(2) + xEAe'(0,1,0,2,5,3)(2)(5)
      + xEAe'(0,1,0,2,5,3)(3)(5) + xEAeR(0,1,0,2,5,3)(2)  = 0
 c46: - xEAe(0,1,0,2,5,3)(3) + xEAe'(0,1,0,2,5,3)(3)(5) + xEAeR(0,1,0,2,5,3)(3)
       = 0
 c47: x(0,1,0,2,5,2)(0) - xEAr(0,1,0,2,0)(2)(1) + xEAr'(0,1,0,2,0)(3)(1)(0)
      + xEArR(0,1,0,2,0)(2)(1)  = 0
 c48: x(0,1,0,2,5,2)(0) - xEAr(0,1,0,2,0)(3)(1) + xEArR(0,1,0,2,0)(3)(1)  = 0
 c49: x(0,1,0,2,5,2)(0) - xEAr(0,1,0,2,0)(3)(2) + xEArR(0,1,0,2,0)(3)(2)  = 0
 c50: x(0,1,0,2,5,2)(0) - xEAr(0,1,0,2,1)(2)(1) + xEAr'(0,1,0,2,1)(3)(1)(1)
      + xEArR(0,1,0,2,1)(2)(1)  = 0
 c51: x(0,1,0,2,5,2)(0) - xEAr(0,1,0,2,1)(3)(1) + xEArR(0,1,0,2,1)(3)(1)  = 0
 c52: x(0,1,0,2,5,2)(0) - xEAr(0,1,0,2,1)(3)(2) + xEArR(0,1,0,2,1)(3)(2)  = 0
 c53: x(0,1,0,2,5,2)(0) - xEAr(0,1,0,2,2)(2)(1) + xEAr'(0,1,0,2,2)(3)(1)(2)
      + xEArR(0,1,0,2,2)(2)(1)  = 0
 c54: x(0,1,0,2,5,2)(0) - xEAr(0,1,0,2,2)(3)(1) + xEArR(0,1,0,2,2)(3)(1)  = 0
 c55: x(0,1,0,2,5,2)(0) - xEAr(0,1,0,2,2)(3)(2) + xEArR(0,1,0,2,2)(3)(2)  = 0
 c56: x(0,1,0,2,5,2)(0) - xEAr(0,1,0,2,3)(2)(1) + xEAr'(0,1,0,2,3)(3)(1)(3)
      + xEArR(0,1,0,2,3)(2)(1)  = 0
 c57: x(0,1,0,2,5,2)(0) - xEAr(0,1,0,2,3)(3)(1) + xEArR(0,1,0,2,3)(3)(1)  = 0
 c58: x(0,1,0,2,5,2)(0) - xEAr(0,1,0,2,3)(3)(2) + xEArR(0,1,0,2,3)(3)(2)  = 0
 c59: x(0,1,0,2,5,2)(0) - xEAr(0,1,0,2,4)(2)(1) + xEAr'(0,1,0,2,4)(3)(1)(4)
      + xEArR(0,1,0,2,4)(2)(1)  = 0
 c60: x(0,1,0,2,5,2)(0) - xEAr(0,1,0,2,4)(3)(1) + xEArR(0,1,0,2,4)(3)(1)  = 0
 c61: x(0,1,0,2,5,2)(0) - xEAr(0,1,0,2,4)(3)(2) + xEArR(0,1,0,2,4)(3)(2)  = 0
 c62: x(0,1,0,2,5,2)(0) - xEAr(0,1,0,2,5)(2)(1) + xEAr'(0,1,0,2,5)(3)(1)(5)
      + xEArR(0,1,0,2,5)(2)(1)  = 0
 c63: x(0,1,0,2,5,2)(0) - xEAr(0,1,0,2,5)(3)(1) + xEArR(0,1,0,2,5)(3)(1)  = 0
 c64: x(0,1,0,2,5,2)(0) - xEAr(0,1,0,2,5)(3)(2) + xEArR(0,1,0,2,5)(3)(2)  = 0
 c65: x(0,1,0,2,5,2)(0) - xEAr(0,1,0,2,6)(2)(1) + xEAr'(0,1,0,2,6)(3)(1)(6)
      + xEArR(0,1,0,2,6)(2)(1)  = 0
 c66: x(0,1,0,2,5,2)(0) - xEAr(0,1,0,2,6)(3)(1) + xEArR(0,1,0,2,6)(3)(1)  = 0
 c67: x(0,1,0,2,5,2)(0) - xEAr(0,1,0,2,6)(3)(2) + xEArR(0,1,0,2,6)(3)(2)  = 0
 c68: x(0,1,0,2,5,2)(0) - xEAr(0,1,0,2,7)(2)(1) + xEAr'(0,1,0,2,7)(3)(1)(7)
      + xEArR(0,1,0,2,7)(2)(1)  = 0
 c69: x(0,1,0,2,5,2)(0) - xEAr(0,1,0,2,7)(3)(1) + xEArR(0,1,0,2,7)(3)(1)  = 0
 c70: x(0,1,0,2,5,2)(0) - xEAr(0,1,0,2,7)(3)(2) + xEArR(0,1,0,2,7)(3)(2)  = 0
End
